InboundTrucks  = 100;
OutboundTrucks = 50;
ReleaseTime    = [1,69,97,70,17,70,189,41,39,5,75,65,232,68,20,75,47,167,11,62,100,71,160,1,34,89,197,228,53,12,7,87,32,5,249,34,24,59,47,223,98,58,3,74,258,4,33,34,25,73,79,22,72,15,8,84,299,28,59,226,161,30,27,49,35,74,6,4,77,78,17,5,91,32,31,77,165,292,251,36,31,24,61,283,37,36,72,20,67,184,24,225,83,43,83,96,99,173,183,77];
UnloadTime     = [12,4,3,3,4,8,4,4,10,12,12,10,11,9,3,7,3,3,8,9,4,8,1,4,11,3,12,3,4,7,5,5,7,4,6,9,4,6,3,10,11,4,9,7,12,10,5,8,2,10,5,11,3,7,11,3,2,11,8,8,5,9,3,5,5,4,4,3,12,7,11,5,8,4,11,7,8,3,7,4,7,12,7,9,6,4,9,1,1,12,4,2,7,3,9,6,3,2,4,2];
LoadTime       = [12,8,4,4,3,3,8,10,9,2,1,6,3,4,9,8,5,1,2,10,6,8,3,5,12,7,6,1,4,12,10,7,4,9,2,12,4,9,7,7,7,9,2,5,6,3,7,1,4,8];
TransferTime   = [| 0,2,1,0,0,0,2,0,0,0,0,0,0,0,0,0,0,1,0,0,0,0,0,0,0,0,2,0,0,0,1,1,0,2,0,0,0,0,0,0,0,0,2,0,0,2,1,2,0,0 | 1,0,0,2,2,1,0,0,0,1,0,1,0,1,0,1,1,0,0,0,0,0,0,2,2,1,0,0,0,2,0,0,2,2,2,0,1,2,1,0,0,1,0,1,0,1,2,1,2,0 | 2,2,2,0,0,1,1,0,0,2,0,1,0,1,1,0,0,0,0,0,1,1,0,0,2,0,2,2,0,1,0,1,2,1,1,2,0,1,0,1,0,0,2,2,0,2,2,2,1,0 | 0,0,0,0,0,0,1,1,0,0,0,1,0,0,0,1,0,0,0,2,2,0,2,1,0,2,1,0,0,2,0,0,0,0,1,2,0,2,0,0,0,0,0,0,0,1,1,2,0,0 | 0,0,0,0,0,0,0,1,0,0,0,0,0,2,0,2,0,0,0,2,0,0,0,0,1,0,0,0,0,1,2,0,2,1,0,0,1,1,2,0,0,0,1,0,0,2,1,2,1,0 | 0,0,2,0,0,0,2,0,0,0,1,0,0,1,2,0,1,0,0,0,0,0,0,0,1,0,2,0,1,1,2,0,0,0,0,0,0,0,1,1,2,2,2,0,1,0,2,2,0,2 | 0,1,0,1,1,0,0,0,1,0,2,1,0,0,0,1,0,0,0,0,1,1,2,2,0,0,2,1,2,1,2,0,0,2,0,1,2,0,0,0,2,2,0,0,2,0,1,0,0,0 | 2,0,0,2,0,0,2,0,0,0,0,1,0,0,0,1,1,0,0,1,0,1,0,0,0,0,2,0,1,2,0,0,2,0,1,1,0,0,2,2,0,2,0,0,2,2,1,0,2,1 | 0,0,0,0,1,2,0,0,1,2,1,1,1,0,2,0,0,0,1,0,0,0,0,1,2,0,1,2,0,0,0,2,2,0,0,0,2,0,0,0,2,0,2,0,2,0,0,0,0,0 | 1,2,0,0,2,0,0,2,0,1,1,1,2,2,0,1,0,0,0,0,0,0,0,1,0,0,2,0,0,2,0,2,0,1,0,2,0,0,0,0,0,2,1,0,0,0,0,0,0,1 | 0,2,1,0,0,2,0,0,2,0,0,1,0,1,2,2,0,2,1,0,0,0,0,0,0,0,0,0,2,0,2,0,0,0,0,0,0,0,0,0,1,0,0,0,0,1,2,0,0,2 | 0,1,1,2,2,1,0,0,2,0,1,0,0,0,1,0,0,2,0,1,0,0,0,2,1,1,0,2,0,0,1,0,1,0,0,0,0,0,0,0,1,1,0,0,2,0,0,0,1,1 | 2,1,1,0,2,0,2,2,0,0,0,0,0,0,0,2,0,0,1,1,2,0,1,0,0,0,0,0,0,2,2,0,0,2,2,0,2,2,0,1,0,0,1,1,0,2,2,2,0,1 | 1,0,2,0,1,1,1,0,0,0,2,0,1,0,0,2,2,0,0,0,0,1,2,0,0,0,0,0,2,0,2,0,0,0,0,2,0,0,0,0,1,1,2,2,0,0,2,2,0,0 | 0,2,0,0,2,0,0,2,1,2,2,2,1,2,1,2,2,1,1,0,2,2,2,0,2,0,0,0,1,1,2,0,2,0,0,0,1,1,2,1,1,2,0,2,0,1,0,0,0,1 | 0,0,0,2,0,0,0,0,0,2,2,0,2,0,0,0,0,0,2,2,2,0,1,1,0,1,0,0,1,0,2,1,0,1,0,0,0,0,2,1,0,2,0,0,1,2,0,1,0,0 | 2,0,0,2,2,0,0,0,0,0,2,0,2,0,0,0,0,1,0,0,2,2,1,0,1,1,1,2,1,0,0,0,1,0,0,0,0,0,0,1,2,1,0,0,0,0,0,2,0,0 | 0,2,2,1,1,2,0,0,2,2,0,2,0,0,2,0,2,0,0,0,0,0,1,0,1,0,0,0,0,1,0,2,2,0,0,0,2,1,0,0,2,0,1,2,0,1,0,0,0,0 | 2,0,0,0,0,1,2,0,0,0,0,0,0,0,1,1,1,1,0,1,1,2,0,0,0,0,0,1,2,0,2,0,0,2,0,1,0,2,0,0,1,2,0,0,0,1,1,0,0,2 | 0,0,0,0,1,0,0,0,1,0,0,0,1,0,0,1,0,0,0,2,2,2,1,0,0,0,2,0,0,2,0,0,2,1,0,0,0,2,2,0,0,0,0,1,1,0,0,1,0,2 | 2,0,0,4,0,0,0,0,0,0,0,0,0,0,0,0,0,3,2,3,5,2,4,1,0,0,0,0,4,5,3,2,0,0,0,0,0,0,0,4,0,0,4,0,0,2,0,0,2,0 | 1,0,0,0,0,4,5,3,0,0,0,0,4,4,0,2,0,0,0,0,0,0,2,0,0,0,2,0,0,0,2,0,0,0,5,0,0,0,2,5,1,0,3,0,0,3,4,0,0,0 | 4,0,0,1,0,0,0,0,0,5,0,0,0,1,1,1,0,0,2,5,0,5,0,2,0,3,0,0,0,0,0,0,0,0,0,0,3,1,0,0,4,0,0,0,0,3,3,3,3,0 | 0,0,1,0,0,0,1,3,0,0,2,0,0,0,0,0,0,0,0,0,0,0,4,3,0,5,0,0,0,0,0,4,0,0,0,0,5,0,0,3,4,0,3,0,0,0,0,0,1,0 | 0,0,1,5,0,5,0,0,0,5,0,0,3,0,4,0,0,4,0,5,0,3,0,0,0,0,0,3,0,0,0,2,0,0,0,2,4,1,0,0,0,0,0,5,3,0,0,3,0,3 | 0,0,0,0,4,2,2,0,1,0,0,0,0,4,2,0,0,0,0,0,1,0,0,0,0,0,0,0,0,0,5,0,2,0,0,0,3,0,0,2,4,0,5,0,0,0,0,4,0,0 | 0,4,5,0,3,1,2,0,0,3,0,0,0,0,0,0,0,0,0,0,0,0,0,2,0,3,0,3,0,0,0,0,0,0,5,0,0,5,0,0,0,0,1,0,1,3,2,0,0,0 | 0,0,0,2,5,0,0,0,0,5,0,0,0,0,4,0,0,5,2,0,0,0,0,0,0,0,0,0,0,4,0,0,0,0,0,0,1,0,0,1,5,1,5,0,1,0,0,3,4,0 | 1,0,0,0,0,0,0,0,0,0,0,0,0,0,3,0,3,0,0,0,0,3,1,0,2,3,0,1,0,4,0,3,0,0,0,0,5,0,0,0,0,0,0,1,0,4,0,5,0,0 | 1,0,3,0,0,5,0,4,0,0,0,0,0,0,0,0,0,0,0,0,0,4,3,1,0,0,4,0,0,0,0,0,0,0,2,0,5,2,0,0,0,3,0,0,0,1,0,1,0,0 | 0,5,0,0,0,0,4,0,0,5,0,0,2,0,0,0,2,5,4,0,0,0,0,3,0,0,0,0,0,0,0,5,0,2,4,0,0,0,2,0,0,0,2,0,2,0,0,0,2,0 | 0,0,0,5,0,4,0,0,0,0,0,0,0,0,0,0,5,4,2,2,0,3,3,0,0,0,0,5,0,1,0,0,0,0,0,0,4,0,1,0,0,0,3,0,0,0,0,0,3,0 | 3,3,0,0,0,0,0,0,0,3,5,4,2,0,0,0,0,1,0,0,3,0,0,0,0,0,3,0,0,0,0,0,0,0,0,1,2,0,0,0,0,0,0,0,0,0,0,1,0,0 | 0,0,4,0,0,0,1,0,0,0,5,0,0,0,1,0,0,0,0,0,0,0,0,5,0,2,0,0,0,0,0,0,0,0,0,0,0,2,4,0,2,0,0,0,2,0,2,0,4,0 | 0,1,0,0,2,0,0,0,0,0,0,0,3,0,0,2,0,0,0,0,1,0,3,0,0,0,1,0,0,0,0,4,0,0,1,2,4,0,3,5,0,0,0,0,1,0,0,5,0,0 | 0,0,0,0,2,0,0,0,0,5,0,2,1,0,0,0,0,0,0,1,0,5,0,0,0,0,0,0,0,0,1,0,0,4,0,4,3,0,0,0,0,1,0,0,1,0,0,0,0,0 | 0,0,0,0,0,0,0,3,3,0,0,0,0,0,0,2,2,0,5,0,0,2,3,0,0,0,0,3,0,0,0,5,4,0,0,2,0,0,3,5,0,0,0,0,0,0,3,0,2,1 | 1,4,2,0,0,0,0,0,0,0,0,0,3,0,4,0,4,0,0,0,0,0,0,0,0,0,2,0,0,0,0,0,0,2,2,2,0,0,1,0,0,1,0,4,0,3,0,0,0,0 | 5,5,0,0,0,0,0,0,3,1,0,5,0,0,0,0,5,0,0,0,0,0,0,0,0,0,2,2,1,0,0,0,0,0,1,0,0,0,0,5,3,4,0,5,0,1,0,0,0,2 | 0,0,1,4,0,2,0,0,0,0,0,0,0,2,2,2,0,4,0,0,3,0,0,0,0,5,0,0,2,2,0,0,0,0,0,1,5,3,0,0,0,0,0,5,2,1,5,3,2,0 | 0,0,0,0,5,1,3,1,2,0,0,0,0,0,1,0,0,0,0,0,1,0,0,0,5,0,0,0,2,0,0,4,1,0,0,5,0,0,0,0,0,0,0,0,0,0,4,0,0,0 | 0,1,0,0,0,0,0,4,0,0,0,0,0,0,5,0,0,0,0,0,0,0,0,0,0,5,0,0,0,0,0,1,0,0,5,0,0,5,0,0,0,0,3,0,0,0,0,2,4,0 | 0,0,0,3,0,2,0,0,0,5,3,4,0,0,0,0,0,0,2,0,2,0,5,0,0,0,0,5,0,0,0,0,0,3,0,1,3,0,0,0,0,0,0,0,5,1,5,4,4,1 | 0,5,0,0,0,3,4,0,3,0,0,4,5,0,0,5,5,0,4,0,1,2,0,0,0,2,2,0,2,0,0,0,0,0,0,3,2,1,5,0,0,0,0,0,1,0,5,0,0,0 | 0,0,0,5,1,0,4,0,0,0,0,0,0,0,0,3,4,0,0,0,0,0,0,0,0,0,0,0,0,0,4,0,0,0,0,0,0,0,1,0,0,0,0,0,0,0,5,1,0,5 | 0,2,3,5,5,0,0,1,4,0,4,1,0,0,0,0,0,5,2,0,0,3,0,0,0,0,0,0,0,0,0,0,0,1,5,0,3,0,4,0,3,4,0,3,1,3,0,0,4,0 | 0,0,0,0,5,0,0,0,0,0,0,0,0,1,2,0,0,5,0,0,3,0,0,0,5,5,0,0,0,2,0,3,4,2,0,0,0,0,0,2,0,4,0,0,0,5,5,0,0,0 | 1,0,0,0,0,0,5,5,4,0,0,0,0,0,3,0,0,4,0,3,0,0,0,3,4,0,0,0,0,0,0,0,0,0,0,3,0,4,0,0,0,3,2,0,0,1,3,0,0,0 | 0,0,0,0,2,0,0,0,0,0,3,0,0,2,0,0,0,0,0,0,0,0,0,0,5,0,0,0,1,0,0,1,0,1,0,0,0,0,3,0,1,0,2,5,0,0,3,3,3,0 | 0,0,0,4,0,0,0,0,3,0,1,0,0,0,0,1,2,5,5,0,0,5,3,2,4,0,0,0,0,3,0,0,0,4,0,3,1,3,2,0,0,0,0,0,0,0,0,0,2,0 | 0,0,0,2,0,0,2,0,0,2,2,0,2,5,0,0,0,0,0,4,0,0,0,0,5,2,0,2,5,0,0,3,0,0,0,0,0,4,0,1,0,0,1,0,0,0,2,0,0,0 | 0,5,5,0,0,0,0,4,0,0,0,0,0,0,0,0,0,5,3,0,0,0,0,0,4,4,0,0,4,0,0,0,0,0,1,0,5,0,0,0,0,0,0,0,0,0,0,0,1,0 | 1,0,0,2,3,0,0,0,0,0,0,0,0,0,0,0,5,0,0,0,0,0,0,0,3,5,0,0,1,0,0,0,0,0,0,0,1,0,0,0,1,0,0,0,0,0,0,5,0,3 | 0,5,0,0,0,0,0,2,3,0,3,5,0,4,1,0,1,0,0,0,0,0,0,0,0,0,0,4,0,0,0,0,0,0,2,0,2,0,2,1,0,5,2,0,3,3,0,3,0,0 | 0,0,0,0,0,0,0,0,1,0,3,0,0,0,0,0,0,0,0,5,0,0,0,1,0,0,0,0,0,5,3,3,2,0,2,2,0,0,0,0,0,0,0,0,3,0,0,2,0,0 | 2,0,0,2,0,5,0,0,0,5,0,5,0,5,0,0,0,1,0,2,3,0,3,5,0,0,0,5,0,0,5,0,0,0,3,0,0,2,5,1,5,0,0,0,5,3,0,0,1,0 | 4,2,0,0,4,0,5,0,0,0,0,0,0,2,3,0,0,2,0,1,0,0,1,4,0,1,0,0,5,4,0,0,0,0,0,0,4,0,0,0,0,0,0,0,0,0,3,0,4,0 | 0,0,1,0,0,0,0,5,3,2,0,0,4,0,0,0,3,0,0,0,3,0,0,2,0,1,0,0,0,3,0,3,0,2,0,0,0,3,0,0,0,0,0,0,0,0,0,0,5,0 | 0,0,0,0,0,0,1,0,0,0,0,0,4,3,0,0,1,2,1,0,5,0,0,0,0,0,0,0,2,0,0,1,0,0,0,4,0,0,0,5,0,4,2,0,0,3,0,0,0,5 | 1,0,2,3,0,0,5,0,0,4,4,0,0,0,0,1,0,5,0,0,0,0,2,0,0,0,0,0,0,0,0,0,0,4,0,0,0,0,0,0,4,5,0,0,0,0,0,2,0,0 | 0,0,0,1,0,0,0,0,5,0,5,0,2,0,0,2,2,0,0,2,2,0,4,1,0,0,0,0,0,0,0,0,0,0,0,0,0,0,0,0,0,0,0,4,0,0,1,0,0,0 | 0,5,2,0,5,0,0,0,0,0,0,0,0,0,0,3,0,0,4,0,0,0,0,0,0,0,0,0,0,0,0,3,2,0,0,2,0,0,5,4,0,5,0,0,2,0,4,0,0,3 | 0,2,4,0,0,2,2,0,0,0,4,0,0,4,0,0,0,0,0,4,0,0,0,4,0,0,0,0,0,0,0,0,0,0,0,0,0,0,3,0,0,0,0,0,2,0,1,0,0,0 | 5,2,0,0,0,1,0,2,0,0,0,0,0,2,0,0,0,0,0,0,2,1,0,0,3,0,0,3,0,3,0,0,0,0,0,0,0,1,3,2,0,3,0,0,0,5,0,0,0,0 | 0,0,0,0,0,0,0,0,0,0,0,0,5,0,0,5,0,0,0,0,2,1,0,0,4,4,0,1,3,0,0,4,1,0,0,0,0,0,0,0,1,0,0,0,0,1,0,0,0,0 | 0,0,0,3,0,0,2,0,0,0,0,2,5,3,3,1,0,0,5,0,4,0,0,5,0,4,0,0,2,0,5,2,0,0,0,3,0,0,2,0,0,0,0,0,0,2,0,0,2,1 | 0,0,0,0,5,1,0,0,0,0,0,3,0,5,0,0,0,0,1,1,0,0,0,0,2,0,0,0,2,2,0,0,0,0,0,1,0,0,0,2,0,0,5,2,0,0,0,0,4,1 | 5,0,0,0,0,0,3,0,0,0,0,0,0,0,4,4,4,0,0,0,0,2,4,0,5,0,4,0,0,0,0,5,3,1,3,0,0,0,0,0,0,0,0,2,0,0,0,0,5,0 | 4,0,0,4,3,3,0,4,4,1,0,0,0,0,0,0,1,0,1,4,3,0,0,0,0,3,0,0,0,0,0,2,0,0,0,0,5,0,0,0,0,0,0,0,3,0,5,0,0,0 | 2,0,0,0,0,4,3,0,0,1,0,0,0,4,0,0,0,4,0,0,0,3,0,2,0,4,0,0,3,0,0,0,0,0,1,0,0,0,0,0,4,0,3,0,0,0,0,0,0,1 | 2,5,0,0,0,0,5,0,2,5,0,0,0,0,0,0,1,0,0,0,0,0,2,0,0,0,0,0,0,0,0,0,0,0,0,2,3,0,2,0,0,0,0,0,0,0,0,0,0,3 | 0,0,0,0,1,0,0,0,0,0,3,2,4,0,0,0,0,4,0,5,0,4,0,5,5,0,0,0,0,0,5,3,0,0,0,3,0,0,0,4,0,4,0,0,2,5,3,0,0,4 | 4,0,0,1,0,4,2,3,4,0,0,0,0,4,0,4,5,1,0,0,0,0,0,5,0,0,2,2,0,0,2,0,1,2,0,3,1,0,0,0,5,0,0,4,0,0,0,1,0,1 | 0,4,0,0,0,1,0,0,0,2,0,0,4,0,0,0,5,0,0,0,0,4,0,0,0,0,0,0,3,0,0,5,1,5,0,1,2,0,0,0,0,0,0,5,0,5,0,5,0,2 | 0,0,0,1,3,0,0,4,5,0,0,0,5,0,0,0,4,0,0,0,5,0,0,0,0,0,0,0,3,4,0,0,1,5,0,0,0,0,1,0,2,0,5,4,0,0,2,3,0,2 | 0,5,0,0,0,0,0,0,1,0,0,0,0,2,0,3,0,0,0,5,0,0,5,0,0,0,0,0,0,2,4,0,1,2,1,0,0,3,0,0,4,0,0,0,0,1,1,2,0,0 | 0,0,5,0,0,0,4,0,0,0,0,0,0,0,4,2,5,3,1,0,0,0,5,0,0,0,2,0,0,0,1,1,0,0,0,0,5,0,0,2,0,0,5,0,1,5,0,0,0,5 | 0,0,0,0,0,0,0,0,0,0,2,1,0,0,0,0,0,0,4,0,0,0,5,0,0,0,1,2,0,0,0,0,3,0,0,0,0,0,0,0,1,0,0,3,3,0,0,0,3,1 | 5,0,0,5,4,0,0,5,5,0,3,0,3,0,0,0,5,0,0,1,0,0,0,4,0,3,0,0,0,0,0,1,0,2,5,0,0,0,0,0,0,0,1,0,1,0,0,3,2,3 | 4,0,0,3,0,0,1,0,0,0,0,0,0,0,0,0,0,0,5,2,4,0,0,0,0,2,5,0,0,1,0,3,4,0,4,0,5,4,0,2,0,0,0,0,3,0,2,0,0,0 | 2,0,0,0,5,0,0,1,0,1,0,0,3,0,3,0,0,0,4,0,0,0,0,0,0,0,5,0,0,0,0,0,0,0,0,0,0,1,0,2,0,0,0,0,3,0,0,0,0,2 | 0,1,0,2,0,0,0,0,4,0,0,0,0,0,5,0,0,0,0,0,0,5,5,5,3,0,0,2,2,2,0,0,0,0,5,1,1,5,0,0,5,2,0,1,0,0,2,0,0,5 | 0,4,0,0,0,0,5,0,0,0,0,0,0,0,0,0,5,0,0,2,0,1,0,0,0,0,0,4,0,0,0,0,3,0,0,0,0,4,0,0,0,0,5,0,5,0,0,0,0,1 | 1,0,0,4,3,0,4,3,0,4,0,0,0,0,0,4,0,0,3,5,0,0,3,0,0,0,0,2,0,0,0,0,2,0,5,4,3,0,0,0,3,5,3,0,3,0,0,0,0,5 | 3,3,0,0,0,0,3,0,0,0,0,0,0,1,0,4,0,0,0,0,0,0,0,0,0,0,0,0,0,4,0,0,0,3,0,5,1,0,0,0,0,0,0,1,0,3,4,2,0,5 | 4,3,0,2,0,0,0,5,1,0,1,0,0,1,1,0,0,0,0,0,0,0,0,0,0,0,3,4,0,0,4,0,0,0,0,2,1,0,4,0,0,0,0,0,0,0,0,0,3,0 | 0,2,0,2,0,0,0,0,0,0,0,0,0,5,0,2,3,0,0,5,0,0,5,0,0,2,0,0,0,0,0,0,0,0,0,3,0,0,0,0,0,4,0,0,0,0,3,0,0,0 | 0,3,0,0,0,1,0,4,0,0,0,2,0,0,3,0,0,1,0,0,3,0,2,3,0,0,2,0,2,3,4,3,0,0,2,0,0,1,0,3,0,0,0,0,0,1,0,0,0,1 | 4,0,0,0,0,0,0,1,0,0,0,0,2,0,0,0,1,0,0,0,0,4,0,0,1,0,5,2,5,1,5,0,0,0,0,0,0,0,0,0,0,1,1,1,1,0,0,0,0,0 | 3,3,0,2,0,0,1,1,4,1,0,0,4,4,0,1,3,0,0,0,0,0,2,0,0,1,0,0,2,0,0,5,0,0,0,2,0,0,4,3,1,0,5,0,0,0,0,0,5,0 | 4,0,0,0,0,0,5,0,0,4,0,0,0,0,0,0,0,0,0,1,1,0,5,0,0,0,0,0,2,0,0,0,0,4,0,0,3,4,0,0,1,0,0,1,0,0,0,1,0,0 | 0,0,0,0,0,0,2,0,0,5,2,0,3,5,4,0,3,0,1,0,0,0,4,4,0,0,2,0,0,0,0,3,0,0,0,0,0,0,0,0,5,0,4,2,0,0,0,0,0,0 | 3,4,3,0,3,0,5,0,0,0,0,0,0,0,0,3,0,0,0,0,0,0,0,3,0,0,2,0,0,0,0,4,2,0,5,0,0,4,0,1,0,0,0,2,1,0,0,0,0,5 | 0,3,0,4,0,3,0,4,2,0,0,0,0,1,0,0,0,1,0,0,0,0,0,0,0,0,0,0,0,0,1,0,0,0,0,3,0,4,3,0,0,0,1,0,0,0,0,0,0,0 | 2,0,0,0,0,0,4,0,0,1,3,0,0,4,0,0,0,0,0,0,0,0,0,0,0,0,4,2,0,0,2,0,0,0,0,0,0,2,0,0,0,0,0,3,0,0,0,0,0,0 | 5,0,5,0,3,0,4,0,0,0,0,0,4,0,3,3,0,5,0,0,4,0,0,0,0,0,3,4,1,0,4,0,4,0,0,4,0,0,4,0,0,0,3,0,0,4,1,5,0,2 | 0,0,0,2,0,0,0,0,0,0,0,0,2,4,0,4,0,0,4,0,1,0,0,0,0,0,0,0,0,4,1,0,0,0,0,2,0,0,0,4,0,4,2,0,3,0,0,0,0,5 | 1,0,0,0,0,4,0,0,1,4,0,2,0,1,0,0,0,0,0,1,3,0,0,0,0,0,0,0,0,1,0,0,0,0,0,0,0,0,0,0,2,0,0,4,4,0,3,0,0,5 | 0,0,0,0,0,0,0,0,0,5,0,0,0,0,0,0,0,3,4,0,0,0,3,5,0,0,0,0,0,0,0,0,0,3,0,0,1,2,0,0,0,0,0,0,0,0,4,4,0,0 | 0,0,0,1,0,4,0,0,3,5,0,1,5,0,0,4,0,0,0,0,0,2,0,2,0,0,0,0,0,0,0,0,1,0,0,0,0,0,2,2,0,0,0,0,0,0,0,0,4,0 |];
